
%FILE DATA:	Soccer Computational Problem for MiniZinc Models	%
%AUTHOR:	Jack Wall	%
%CONTACT:  	116397063@umail.ucc.ie			%
%LAST UPDATE:	02/27/2020, 19:27:34						%
%DESCRIPTION: 	66 games played with 44 games left				%


n=11; %number of teams

%Games to play
games=[|3,9|4,5|10,6|2,8|10,7|2,10|4,3|10,4|8,11|7,8|10,2|2,9|5,8|2,6|4,7|4,6|2,7|9,6|6,8|10,9|2,3|7,10|6,7|7,1|11,6|2,5|1,4|11,10|7,9|5,9|2,11|4,9|1,5|3,8|5,3|3,5|6,9|7,2|7,5|1,3|4,1|3,1|11,7|3,4|];

%Initial points
iPoints=[22,18,18,16,9,9,13,25,11,17,25];

%POSITION CONSTRAINTS
% [|teamID, operator, position|...]
% operators index:
%  1 for =  operator
%  2 for >  operator
%  3 for >= operator
%  4 for <  operator
%  5 for <= operator
positionConstraints=[|11,4,2|8,3,2|3,3,3|];